SDVRP instances/custom_instances/p03_22_splitx10_0.vrp
NAME:p03_22_splitx10_
BEST_KNOWN: 0
COMMENT: 0
DIMENSION: 449
CAPACITY: 2000
EDGE_WEIGHT_FORMAT: FUNCTION
EDGE_WEIGHT_TYPE: EXACT_2D
NODE_COORD_SECTION
1 0.00000 0.00000
2 -24 -2
3 -24 -2
4 -24 -2
5 -24 -2
6 -24 -2
7 -24 -2
8 -24 -2
9 -50 -39
10 -50 -39
11 -50 -39
12 -50 -39
13 -50 -39
14 -35 38
15 -35 38
16 -35 38
17 -35 38
18 -35 38
19 -35 38
20 -34 -32
21 -34 -32
22 -34 -32
23 -34 -32
24 -34 -32
25 -34 -32
26 16 26
27 16 26
28 16 26
29 16 26
30 16 26
31 16 26
32 16 26
33 6 -5
34 6 -5
35 6 -5
36 6 -5
37 15 -38
38 15 -38
39 15 -38
40 48 9
41 48 9
42 48 9
43 -31 48
44 -31 48
45 -31 48
46 -5 -40
47 -5 -40
48 -5 -40
49 -5 -40
50 -5 -40
51 -5 6
52 -5 6
53 -5 6
54 -5 6
55 -5 6
56 -17 -32
57 -17 -32
58 -17 -32
59 -17 -32
60 -17 -32
61 46 -40
62 46 -40
63 46 -40
64 46 -40
65 46 -40
66 20 39
67 20 39
68 28 -50
69 28 -50
70 28 -50
71 28 -50
72 -1 21
73 -1 21
74 -1 21
75 -1 21
76 14 13
77 14 13
78 14 13
79 14 13
80 -37 7
81 -37 7
82 -37 7
83 -37 7
84 -37 7
85 27 16
86 27 16
87 27 16
88 27 16
89 27 16
90 -35 4
91 -35 4
92 -35 4
93 -35 4
94 -35 4
95 -35 4
96 36 -29
97 36 -29
98 36 -29
99 36 -29
100 36 -29
101 34 41
102 34 41
103 34 41
104 34 41
105 34 41
106 16 -4
107 16 -4
108 -39 20
109 -39 20
110 -39 20
111 -39 20
112 -39 20
113 -39 20
114 -39 20
115 18 20
116 18 20
117 18 20
118 18 20
119 11 44
120 11 44
121 11 44
122 11 44
123 11 44
124 11 44
125 44 -9
126 44 -9
127 44 -9
128 44 -9
129 44 -9
130 -4 34
131 -4 34
132 -4 34
133 -4 34
134 -47 11
135 -47 11
136 -47 11
137 -47 11
138 -47 11
139 -4 36
140 -4 36
141 -4 36
142 -4 36
143 -4 36
144 -4 36
145 -4 36
146 3 24
147 3 24
148 3 24
149 3 24
150 3 24
151 3 24
152 3 24
153 41 27
154 41 27
155 41 27
156 41 27
157 41 27
158 41 27
159 41 27
160 -4 29
161 -4 29
162 -4 29
163 -4 29
164 -4 29
165 30 -39
166 30 -39
167 30 -39
168 -48 50
169 -48 50
170 -48 50
171 34 11
172 34 11
173 34 11
174 34 11
175 34 11
176 10 7
177 10 7
178 10 7
179 -14 -20
180 -14 -20
181 -14 -20
182 -14 -20
183 30 -15
184 30 -15
185 30 -15
186 45 12
187 45 12
188 45 12
189 45 12
190 45 12
191 44 43
192 44 43
193 44 43
194 44 43
195 44 43
196 4 -31
197 -31 -8
198 -31 -8
199 -31 -8
200 31 38
201 -13 -31
202 -13 -31
203 -13 -31
204 -13 -31
205 -13 -31
206 -13 -31
207 10 -46
208 10 -46
209 10 -46
210 10 -46
211 10 -46
212 10 -46
213 -39 35
214 -39 35
215 -42 0
216 -42 0
217 -42 0
218 45 36
219 45 36
220 45 36
221 45 36
222 11 -34
223 11 -34
224 -14 -5
225 -14 -5
226 -14 -5
227 -14 -5
228 -42 8
229 -42 8
230 -42 8
231 -42 8
232 -42 8
233 -42 8
234 35 26
235 35 26
236 35 26
237 35 26
238 -16 7
239 -16 7
240 -16 7
241 -16 7
242 -34 -43
243 -34 -43
244 -34 -43
245 -34 -43
246 -34 -43
247 -44 18
248 -44 18
249 -44 18
250 -44 18
251 -44 18
252 -5 1
253 -5 1
254 -5 1
255 -5 1
256 -5 1
257 -5 1
258 -4 -26
259 -4 -26
260 -4 -26
261 -4 -26
262 33 -12
263 33 -12
264 33 -12
265 33 -12
266 28 16
267 28 16
268 28 16
269 -50 24
270 -50 24
271 -50 24
272 -50 24
273 32 -30
274 32 -30
275 32 -30
276 -23 -32
277 -23 -32
278 -23 -32
279 -50 33
280 -50 33
281 -50 33
282 -50 33
283 31 -24
284 31 -24
285 10 -3
286 10 -3
287 10 -3
288 10 -3
289 -33 35
290 -33 35
291 -33 35
292 -33 35
293 50 4
294 50 4
295 -25 6
296 -25 6
297 -25 6
298 -28 -12
299 -28 -12
300 -28 -12
301 32 -22
302 32 -22
303 32 -22
304 32 -22
305 -22 43
306 -22 43
307 -22 43
308 -22 43
309 -47 49
310 -47 49
311 -47 49
312 -47 49
313 -47 49
314 33 46
315 33 46
316 33 46
317 33 46
318 33 46
319 18 46
320 18 46
321 18 46
322 18 46
323 44 35
324 44 35
325 44 35
326 44 35
327 44 35
328 44 35
329 44 35
330 28 -47
331 28 -47
332 -43 16
333 -43 16
334 -43 16
335 -43 16
336 -43 16
337 -43 16
338 -43 16
339 -41 3
340 -41 3
341 -41 3
342 -41 3
343 -41 3
344 -41 3
345 -19 -16
346 -19 -16
347 -19 -16
348 -19 -16
349 -19 -16
350 -19 -16
351 -6 50
352 -6 50
353 -6 50
354 -6 50
355 -26 43
356 -26 43
357 -26 43
358 -26 43
359 -26 43
360 -26 43
361 6 29
362 6 29
363 6 29
364 6 29
365 6 29
366 6 29
367 6 29
368 22 -5
369 22 -5
370 22 -5
371 22 -5
372 -22 -25
373 -22 -25
374 -22 -25
375 -22 -25
376 10 17
377 10 17
378 10 17
379 10 17
380 -6 -7
381 -6 -7
382 -6 -7
383 -6 -7
384 -6 -7
385 -6 -7
386 37 -8
387 37 -8
388 37 -8
389 37 -8
390 37 -8
391 37 -8
392 47 1
393 47 1
394 47 1
395 47 1
396 47 1
397 47 1
398 36 -4
399 36 -4
400 36 -4
401 36 -4
402 36 -4
403 36 -4
404 36 -4
405 -31 -44
406 -31 -44
407 -31 -44
408 -31 -44
409 8 28
410 8 28
411 8 28
412 8 28
413 -7 11
414 -7 11
415 5 -25
416 5 -25
417 5 -25
418 5 -25
419 -41 35
420 -41 35
421 -41 35
422 -41 35
423 -41 35
424 -41 35
425 -41 35
426 36 29
427 36 29
428 36 29
429 36 29
430 18 -30
431 18 -30
432 18 -30
433 28 -46
434 28 -46
435 28 -46
436 28 -46
437 13 -13
438 13 -13
439 13 -13
440 13 -13
441 13 -13
442 13 -13
443 -49 21
444 -49 21
445 -49 21
446 -49 21
447 -49 21
448 -49 21
449 -49 21
DEMAND_SECTION
1 0
2 400
3 400
4 100
5 20
6 20
7 20
8 10
9 400
10 200
11 20
12 20
13 10
14 400
15 200
16 20
17 20
18 20
19 20
20 400
21 400
22 20
23 20
24 20
25 10
26 400
27 400
28 20
29 20
30 20
31 20
32 10
33 400
34 400
35 20
36 10
37 400
38 20
39 20
40 400
41 20
42 10
43 400
44 20
45 10
46 400
47 200
48 100
49 20
50 20
51 400
52 200
53 100
54 20
55 10
56 200
57 100
58 20
59 20
60 10
61 200
62 100
63 20
64 20
65 10
66 400
67 100
68 200
69 20
70 20
71 20
72 400
73 200
74 100
75 10
76 400
77 200
78 100
79 10
80 400
81 400
82 20
83 20
84 20
85 400
86 100
87 20
88 20
89 20
90 400
91 100
92 20
93 20
94 20
95 20
96 400
97 100
98 20
99 20
100 10
101 400
102 20
103 20
104 20
105 10
106 400
107 100
108 400
109 400
110 100
111 20
112 20
113 20
114 20
115 400
116 400
117 20
118 20
119 400
120 400
121 100
122 20
123 20
124 10
125 400
126 200
127 100
128 20
129 20
130 400
131 200
132 20
133 20
134 400
135 100
136 20
137 20
138 20
139 400
140 200
141 100
142 20
143 20
144 20
145 20
146 400
147 100
148 20
149 20
150 20
151 20
152 10
153 200
154 100
155 20
156 20
157 20
158 20
159 10
160 200
161 100
162 20
163 20
164 10
165 400
166 100
167 10
168 400
169 200
170 10
171 400
172 100
173 20
174 20
175 20
176 400
177 400
178 200
179 400
180 400
181 20
182 10
183 200
184 100
185 20
186 200
187 20
188 20
189 20
190 20
191 200
192 100
193 20
194 20
195 20
196 400
197 400
198 200
199 20
200 400
201 400
202 400
203 100
204 20
205 20
206 10
207 400
208 400
209 100
210 20
211 20
212 10
213 400
214 100
215 400
216 400
217 10
218 200
219 20
220 20
221 20
222 400
223 400
224 400
225 200
226 100
227 20
228 200
229 100
230 20
231 20
232 20
233 20
234 400
235 100
236 20
237 10
238 400
239 400
240 100
241 20
242 400
243 400
244 100
245 20
246 20
247 200
248 100
249 20
250 20
251 10
252 400
253 200
254 100
255 20
256 20
257 20
258 200
259 20
260 20
261 10
262 200
263 100
264 20
265 10
266 400
267 400
268 200
269 400
270 100
271 20
272 10
273 400
274 400
275 200
276 200
277 100
278 20
279 200
280 20
281 20
282 10
283 200
284 100
285 400
286 400
287 20
288 20
289 400
290 200
291 20
292 10
293 400
294 100
295 200
296 100
297 20
298 400
299 20
300 20
301 400
302 100
303 20
304 10
305 400
306 200
307 100
308 10
309 400
310 400
311 100
312 20
313 20
314 400
315 400
316 20
317 20
318 20
319 400
320 400
321 20
322 20
323 200
324 100
325 20
326 20
327 20
328 20
329 10
330 400
331 10
332 400
333 200
334 100
335 20
336 20
337 20
338 10
339 400
340 200
341 100
342 20
343 20
344 20
345 400
346 200
347 100
348 20
349 20
350 10
351 400
352 200
353 20
354 10
355 400
356 20
357 20
358 20
359 20
360 10
361 400
362 100
363 20
364 20
365 20
366 20
367 10
368 400
369 400
370 20
371 10
372 400
373 100
374 20
375 10
376 400
377 400
378 20
379 20
380 400
381 200
382 20
383 20
384 20
385 20
386 400
387 200
388 20
389 20
390 20
391 20
392 400
393 400
394 20
395 20
396 20
397 10
398 400
399 400
400 100
401 20
402 20
403 20
404 10
405 400
406 20
407 20
408 20
409 200
410 20
411 20
412 20
413 400
414 100
415 400
416 100
417 20
418 10
419 400
420 200
421 100
422 20
423 20
424 20
425 10
426 400
427 100
428 20
429 20
430 400
431 20
432 10
433 400
434 20
435 20
436 20
437 400
438 20
439 20
440 20
441 20
442 10
443 400
444 400
445 100
446 20
447 20
448 20
449 10
DEPOT_SECTION
1
-1
EOF