SDVRP instances/custom_instances/p03_22_splitx10_0.sol
448 -4 5 2 3 6 91 90 89 94 92 93 82 79 81 80 83 -7 1 214 216 215 338 342 340 343 341 339 -9 10 11 12 8 20 22 23 21 19 24 374 373 371 -15 310 309 312 311 308 168 167 169 43 44 42 -30 27 31 28 29 26 25 427 426 428 425 233 235 234 236 -35 33 32 34 286 285 287 284 -38 36 37 69 68 67 70 330 329 433 435 432 434 429 430 431 -51 54 291 290 289 288 13 17 16 18 14 213 212 -52 50 53 413 412 237 239 238 240 -55 57 56 58 59 48 46 49 47 45 195 415 414 -65 66 314 316 313 315 317 199 -72 74 138 141 139 143 144 140 142 131 132 130 129 159 162 160 -73 71 151 145 148 146 147 149 150 364 360 365 362 361 411 410 408 409 -75 88 86 84 87 85 265 266 267 -77 78 76 117 116 114 115 375 376 378 377 -100 102 101 103 104 194 191 192 193 190 217 220 218 219 328 326 324 322 325 323 327 153 156 152 158 155 154 157 -110 107 109 112 113 111 108 281 280 279 278 422 420 421 424 419 418 423 -161 163 352 351 350 353 304 305 307 306 355 358 359 356 357 354 -165 166 164 63 61 64 62 60 95 99 97 96 98 182 184 261 263 262 264 -172 173 174 171 170 188 186 41 40 39 292 293 395 393 392 -175 176 177 105 106 436 439 438 441 440 437 -178 179 200 201 205 204 202 203 260 258 257 259 -181 180 277 275 276 407 404 405 406 241 245 244 243 242 372 346 349 -183 302 300 303 301 283 282 273 274 272 -187 185 189 391 394 396 128 126 127 125 124 387 390 389 385 388 -222 221 211 208 207 206 210 209 417 416 -224 197 198 196 297 299 298 345 347 348 344 -255 254 256 251 253 252 226 225 223 383 384 381 382 379 380 -271 269 270 268 444 446 445 443 448 447 442 246 247 250 249 248 334 333 335 -295 296 294 230 227 229 228 232 231 135 133 134 137 136 336 331 337 332 -319 318 321 320 121 122 120 119 118 123 363 366 -370 368 369 367 386 397 399 398 402 401 400 403 0 





OBJ=
2945.704
BEST_KNOWN=
0.000